(set-logic QF_NIA)
(declare-const x Int)
(declare-const y Int)
(declare-const z Int)
(assert (= (+ x y) 10))
(push 1)
(assert (= (* x z) 25))
(assert (>= (* y z) 20))
(assert (>= x 5))
(assert (<= z 10))
(check-sat)
(pop 1)
(assert (<= (+ x y) 15))
(check-sat)
(exit)
